c Generated map
c Size: 10 * 10, weights in range: 1 to 10, walls: False, with ratio 0.0
c dim 2 of 7
c
p sp 100 180
c graph contains 100 nodes and 180 arcs
c
a 1 11 7
a 11 1 7
a 1 2 5
a 2 1 5
a 2 12 4
a 12 2 4
a 2 3 8
a 3 2 8
a 3 13 7
a 13 3 7
a 3 4 4
a 4 3 4
a 4 14 9
a 14 4 9
a 4 5 6
a 5 4 6
a 5 15 6
a 15 5 6
a 5 6 5
a 6 5 5
a 6 16 6
a 16 6 6
a 6 7 6
a 7 6 6
a 7 17 4
a 17 7 4
a 7 8 7
a 8 7 7
a 8 18 7
a 18 8 7
a 8 9 2
a 9 8 2
a 9 19 5
a 19 9 5
a 9 10 3
a 10 9 3
a 10 20 7
a 20 10 7
a 11 21 5
a 21 11 5
a 11 12 6
a 12 11 6
a 12 22 5
a 22 12 5
a 12 13 6
a 13 12 6
a 13 23 6
a 23 13 6
a 13 14 1
a 14 13 1
a 14 24 9
a 24 14 9
a 14 15 1
a 15 14 1
a 15 25 10
a 25 15 10
a 15 16 2
a 16 15 2
a 16 26 2
a 26 16 2
a 16 17 7
a 17 16 7
a 17 27 5
a 27 17 5
a 17 18 9
a 18 17 9
a 18 28 3
a 28 18 3
a 18 19 3
a 19 18 3
a 19 29 3
a 29 19 3
a 19 20 10
a 20 19 10
a 20 30 1
a 30 20 1
a 21 31 5
a 31 21 5
a 21 22 3
a 22 21 3
a 22 32 1
a 32 22 1
a 22 23 9
a 23 22 9
a 23 33 1
a 33 23 1
a 23 24 3
a 24 23 3
a 24 34 2
a 34 24 2
a 24 25 8
a 25 24 8
a 25 35 9
a 35 25 9
a 25 26 7
a 26 25 7
a 26 36 4
a 36 26 4
a 26 27 1
a 27 26 1
a 27 37 8
a 37 27 8
a 27 28 1
a 28 27 1
a 28 38 8
a 38 28 8
a 28 29 2
a 29 28 2
a 29 39 5
a 39 29 5
a 29 30 4
a 30 29 4
a 30 40 9
a 40 30 9
a 31 41 1
a 41 31 1
a 31 32 7
a 32 31 7
a 32 42 2
a 42 32 2
a 32 33 3
a 33 32 3
a 33 43 6
a 43 33 6
a 33 34 1
a 34 33 1
a 34 44 9
a 44 34 9
a 34 35 6
a 35 34 6
a 35 45 3
a 45 35 3
a 35 36 7
a 36 35 7
a 36 46 6
a 46 36 6
a 36 37 5
a 37 36 5
a 37 47 7
a 47 37 7
a 37 38 4
a 38 37 4
a 38 48 7
a 48 38 7
a 38 39 4
a 39 38 4
a 39 49 10
a 49 39 10
a 39 40 4
a 40 39 4
a 40 50 9
a 50 40 9
a 41 51 3
a 51 41 3
a 41 42 10
a 42 41 10
a 42 52 7
a 52 42 7
a 42 43 6
a 43 42 6
a 43 53 6
a 53 43 6
a 43 44 6
a 44 43 6
a 44 54 6
a 54 44 6
a 44 45 8
a 45 44 8
a 45 55 7
a 55 45 7
a 45 46 10
a 46 45 10
a 46 56 2
a 56 46 2
a 46 47 8
a 47 46 8
a 47 57 8
a 57 47 8
a 47 48 5
a 48 47 5
a 48 58 1
a 58 48 1
a 48 49 1
a 49 48 1
a 49 59 9
a 59 49 9
a 49 50 4
a 50 49 4
a 50 60 3
a 60 50 3
a 51 61 4
a 61 51 4
a 51 52 1
a 52 51 1
a 52 62 9
a 62 52 9
a 52 53 7
a 53 52 7
a 53 63 5
a 63 53 5
a 53 54 2
a 54 53 2
a 54 64 7
a 64 54 7
a 54 55 2
a 55 54 2
a 55 65 7
a 65 55 7
a 55 56 5
a 56 55 5
a 56 66 1
a 66 56 1
a 56 57 8
a 57 56 8
a 57 67 9
a 67 57 9
a 57 58 6
a 58 57 6
a 58 68 5
a 68 58 5
a 58 59 10
a 59 58 10
a 59 69 10
a 69 59 10
a 59 60 3
a 60 59 3
a 60 70 7
a 70 60 7
a 61 71 3
a 71 61 3
a 61 62 5
a 62 61 5
a 62 72 1
a 72 62 1
a 62 63 10
a 63 62 10
a 63 73 3
a 73 63 3
a 63 64 8
a 64 63 8
a 64 74 2
a 74 64 2
a 64 65 5
a 65 64 5
a 65 75 10
a 75 65 10
a 65 66 9
a 66 65 9
a 66 76 9
a 76 66 9
a 66 67 9
a 67 66 9
a 67 77 2
a 77 67 2
a 67 68 7
a 68 67 7
a 68 78 4
a 78 68 4
a 68 69 9
a 69 68 9
a 69 79 10
a 79 69 10
a 69 70 10
a 70 69 10
a 70 80 1
a 80 70 1
a 71 81 9
a 81 71 9
a 71 72 2
a 72 71 2
a 72 82 5
a 82 72 5
a 72 73 10
a 73 72 10
a 73 83 4
a 83 73 4
a 73 74 4
a 74 73 4
a 74 84 5
a 84 74 5
a 74 75 7
a 75 74 7
a 75 85 7
a 85 75 7
a 75 76 8
a 76 75 8
a 76 86 5
a 86 76 5
a 76 77 3
a 77 76 3
a 77 87 10
a 87 77 10
a 77 78 7
a 78 77 7
a 78 88 3
a 88 78 3
a 78 79 9
a 79 78 9
a 79 89 2
a 89 79 2
a 79 80 1
a 80 79 1
a 80 90 5
a 90 80 5
a 81 91 8
a 91 81 8
a 81 82 2
a 82 81 2
a 82 92 4
a 92 82 4
a 82 83 8
a 83 82 8
a 83 93 4
a 93 83 4
a 83 84 7
a 84 83 7
a 84 94 5
a 94 84 5
a 84 85 1
a 85 84 1
a 85 95 1
a 95 85 1
a 85 86 2
a 86 85 2
a 86 96 7
a 96 86 7
a 86 87 5
a 87 86 5
a 87 97 3
a 97 87 3
a 87 88 5
a 88 87 5
a 88 98 6
a 98 88 6
a 88 89 3
a 89 88 3
a 89 99 8
a 99 89 8
a 89 90 6
a 90 89 6
a 90 100 6
a 100 90 6
a 91 92 8
a 92 91 8
a 92 93 9
a 93 92 9
a 93 94 5
a 94 93 5
a 94 95 7
a 95 94 7
a 95 96 3
a 96 95 3
a 96 97 2
a 97 96 2
a 97 98 1
a 98 97 1
a 98 99 6
a 99 98 6
a 99 100 9
a 100 99 9
